unknown
(model
; cardinality of BoundSet is 2
(declare-sort BoundSet 0)
; rep: @uc_BoundSet_0
; rep: @uc_BoundSet_1
; cardinality of UnboundSet is 1
(declare-sort UnboundSet 0)
(declare-fun groundTerm_3 () UnboundSet)
(define-fun IsSchoolgirl ((BOUND_VARIABLE_466 BoundSet)) Bool true)
(define-fun IsJumping ((BOUND_VARIABLE_466 BoundSet)) Bool true)
(define-fun IsLow ((BOUND_VARIABLE_466 BoundSet)) Bool true)
(define-fun IsJumpedOverBy ((BOUND_VARIABLE_473 BoundSet) (BOUND_VARIABLE_474 BoundSet)) Bool true)
(define-fun IsGirl ((BOUND_VARIABLE_466 BoundSet)) Bool false)
(define-fun IsHurdle ((BOUND_VARIABLE_466 BoundSet)) Bool false)
)
sat
(model
; cardinality of BoundSet is 1
(declare-sort BoundSet 0)
; rep: @uc_BoundSet_0
; cardinality of UnboundSet is 1
(declare-sort UnboundSet 0)
(declare-fun groundTerm_5 () UnboundSet)
(define-fun IsSchoolgirl ((BOUND_VARIABLE_492 BoundSet)) Bool true)
(define-fun IsJumping ((BOUND_VARIABLE_492 BoundSet)) Bool true)
(define-fun IsLow ((BOUND_VARIABLE_492 BoundSet)) Bool true)
(define-fun IsJumpedOverBy ((BOUND_VARIABLE_499 BoundSet) (BOUND_VARIABLE_500 BoundSet)) Bool true)
(define-fun IsGirl ((BOUND_VARIABLE_492 BoundSet)) Bool false)
(define-fun IsHurdle ((BOUND_VARIABLE_492 BoundSet)) Bool true)
)
